7182
1 1 0 1 0 1 1 0 1 1 
5 6 0 1 3 9 3 3 8 8 5 6 6 6 9 9 5 3 0 6 6 1 1 1 6 5 5 0 8 5 8 0 0 0 3 9 9 6 6 6 6 3 3 3 3 5 0 5 5 1 1 1 6 6 6 9 9 8 8 8 0 0 1 5 0 6 6 6 5 5 0 0 5 0 3 9 3 3 6 5 5 9 6 5 6 5 9 9 9 9 
